2349.22
0 1 2 3 4 5 6 7 8 9 10 11 12 13 14 15 16 17 18 20 21 22 23 25 26 27 28 29 30 32 34 72 0
0 35 36 37 38 39 40 41 42 43 45 47 48 49 50 51 52 53 54 55 56 57 58 59 61 62 63 64 65 70 79 116 131 0
0 66 67 68 69 71 73 74 75 76 77 80 81 82 84 85 86 87 88 89 90 60 24 0
0 83 91 92 93 94 95 96 97 98 99 100 101 102 104 31 0
0 103 105 106 107 108 109 110 111 112 113 115 117 118 133 0
0 114 119 120 121 122 123 124 125 126 127 128 129 134 0
0 130 132 33 78 44 46 19 0
